
Gurobi 9.5.2 (mac64[arm]) logging started Fri Apr 28 17:24:45 2023

Set parameter LogFile to value "Java/output/iterative_model_2_machine/scenario_seed_3_nJob_20_machineCount_2/mip_increment_2/log.txt"
Gurobi Optimizer version 9.5.2 build v9.5.2rc0 (mac64[arm])
Thread count: 8 physical cores, 8 logical processors, using up to 8 threads
Optimize a model with 514 rows, 1600 columns and 11358 nonzeros
Model fingerprint: 0xe95a13db
Variable types: 0 continuous, 1600 integer (1600 binary)
Coefficient statistics:
  Matrix range     [1e+00, 1e+02]
  Objective range  [2e+01, 8e+05]
  Bounds range     [1e+00, 1e+00]
  RHS range        [1e+00, 1e+00]
Presolve removed 199 rows and 713 columns
Presolve time: 0.02s
Presolved: 315 rows, 887 columns, 5830 nonzeros
Variable types: 0 continuous, 887 integer (887 binary)
Found heuristic solution: objective 2295584.0000

Root relaxation: objective 2.194167e+05, 96 iterations, 0.00 seconds (0.00 work units)

    Nodes    |    Current Node    |     Objective Bounds      |     Work
 Expl Unexpl |  Obj  Depth IntInf | Incumbent    BestBd   Gap | It/Node Time

     0     0 219416.731    0   40 2295584.00 219416.731  90.4%     -    0s
H    0     0                    326560.00000 219416.731  32.8%     -    0s
H    0     0                    253648.00000 219416.731  13.5%     -    0s
     0     0 230111.046    0   47 253648.000 230111.046  9.28%     -    0s
     0     0 230111.046    0   29 253648.000 230111.046  9.28%     -    0s
     0     0 231739.234    0   51 253648.000 231739.234  8.64%     -    0s
H    0     0                    252336.00000 231739.234  8.16%     -    0s
     0     0 232140.391    0   51 252336.000 232140.391  8.00%     -    0s
     0     0 238842.258    0   56 252336.000 238842.258  5.35%     -    0s
     0     0 239629.479    0   55 252336.000 239629.479  5.04%     -    0s
     0     0 239719.069    0   61 252336.000 239719.069  5.00%     -    0s
     0     0 239719.155    0   64 252336.000 239719.155  5.00%     -    0s
H    0     0                    241904.00000 239719.155  0.90%     -    0s
     0     0     cutoff    0      241904.000 241904.000  0.00%     -    0s

Cutting planes:
  Gomory: 5
  Cover: 4
  Clique: 10
  MIR: 10
  StrongCG: 3
  GUB cover: 10
  Inf proof: 1
  Zero half: 7
  RLT: 4

Explored 1 nodes (572 simplex iterations) in 0.07 seconds (0.08 work units)
Thread count was 8 (of 8 available processors)

Solution count 6: 241904 252336 253648 ... 2.29558e+06

Optimal solution found (tolerance 1.00e-04)
Best objective 2.419040000000e+05, best bound 2.419040000000e+05, gap 0.0000%

Gurobi 9.5.2 (mac64[arm]) logging started Fri Apr 28 17:24:45 2023

Set parameter LogFile to value "Java/output/iterative_model_2_machine/scenario_seed_3_nJob_20_machineCount_2/mip_increment_2/log.txt"
Gurobi Optimizer version 9.5.2 build v9.5.2rc0 (mac64[arm])
Thread count: 8 physical cores, 8 logical processors, using up to 8 threads
Optimize a model with 502 rows, 657 columns and 4367 nonzeros
Model fingerprint: 0x5a86155b
Variable types: 0 continuous, 657 integer (657 binary)
Coefficient statistics:
  Matrix range     [1e+00, 9e+01]
  Objective range  [2e+03, 1e+05]
  Bounds range     [1e+00, 1e+00]
  RHS range        [1e+00, 1e+00]
Found heuristic solution: objective 421196.00000
Presolve removed 375 rows and 259 columns
Presolve time: 0.01s
Presolved: 127 rows, 398 columns, 2289 nonzeros
Variable types: 0 continuous, 398 integer (398 binary)
Found heuristic solution: objective 261580.00000

Root relaxation: objective 9.383200e+04, 95 iterations, 0.00 seconds (0.00 work units)

    Nodes    |    Current Node    |     Objective Bounds      |     Work
 Expl Unexpl |  Obj  Depth IntInf | Incumbent    BestBd   Gap | It/Node Time

     0     0 93832.0000    0    5 261580.000 93832.0000  64.1%     -    0s
H    0     0                    191068.00000 93832.0000  50.9%     -    0s
H    0     0                    98312.000000 93832.0000  4.56%     -    0s
     0     0 94495.4717    0   28 98312.0000 94495.4717  3.88%     -    0s
H    0     0                    98008.000000 94495.4717  3.58%     -    0s
     0     0 94495.4717    0    7 98008.0000 94495.4717  3.58%     -    0s
     0     0 94564.1734    0   28 98008.0000 94564.1734  3.51%     -    0s
     0     0 96056.0000    0   26 98008.0000 96056.0000  1.99%     -    0s
H    0     0                    96392.000000 96056.0000  0.35%     -    0s

Cutting planes:
  Gomory: 13
  Cover: 1
  Clique: 20
  MIR: 3
  GUB cover: 6
  Zero half: 2
  RLT: 1

Explored 1 nodes (212 simplex iterations) in 0.02 seconds (0.02 work units)
Thread count was 8 (of 8 available processors)

Solution count 6: 96392 98008 98312 ... 421196

Optimal solution found (tolerance 1.00e-04)
Best objective 9.639200000000e+04, best bound 9.639200000000e+04, gap 0.0000%

Gurobi 9.5.2 (mac64[arm]) logging started Fri Apr 28 17:24:45 2023

Set parameter LogFile to value "Java/output/iterative_model_2_machine/scenario_seed_3_nJob_20_machineCount_2/mip_increment_2/log.txt"
Gurobi Optimizer version 9.5.2 build v9.5.2rc0 (mac64[arm])
Thread count: 8 physical cores, 8 logical processors, using up to 8 threads
Optimize a model with 514 rows, 671 columns and 4202 nonzeros
Model fingerprint: 0x007d72b5
Variable types: 0 continuous, 671 integer (671 binary)
Coefficient statistics:
  Matrix range     [1e+00, 1e+02]
  Objective range  [4e+01, 1e+04]
  Bounds range     [1e+00, 1e+00]
  RHS range        [1e+00, 1e+00]
Presolve removed 348 rows and 193 columns
Presolve time: 0.00s

Explored 0 nodes (0 simplex iterations) in 0.00 seconds (0.00 work units)
Thread count was 1 (of 8 available processors)

Solution count 0

Model is infeasible
Best objective -, best bound -, gap -

Computing Irreducible Inconsistent Subsystem (IIS)...

           Constraints          |            Bounds           |  Runtime
      Min       Max     Guess   |   Min       Max     Guess   |
--------------------------------------------------------------------------
        0       219         -         0         0         -           0s
        4         4         -         0         0         -           0s

IIS computed: 4 constraints, 0 bounds
IIS runtime: 0.02 seconds (0.02 work units)

Gurobi 9.5.2 (mac64[arm]) logging started Fri Apr 28 17:24:45 2023

Set parameter LogFile to value "Java/output/iterative_model_2_machine/scenario_seed_3_nJob_20_machineCount_2/mip_increment_2/log.txt"
Gurobi Optimizer version 9.5.2 build v9.5.2rc0 (mac64[arm])
Thread count: 8 physical cores, 8 logical processors, using up to 8 threads
Optimize a model with 550 rows, 797 columns and 5081 nonzeros
Model fingerprint: 0xce4c4065
Variable types: 0 continuous, 797 integer (797 binary)
Coefficient statistics:
  Matrix range     [1e+00, 1e+02]
  Objective range  [4e+01, 2e+04]
  Bounds range     [1e+00, 1e+00]
  RHS range        [1e+00, 1e+00]
Presolve removed 385 rows and 468 columns
Presolve time: 0.01s

Explored 0 nodes (0 simplex iterations) in 0.01 seconds (0.01 work units)
Thread count was 1 (of 8 available processors)

Solution count 0

Model is infeasible
Best objective -, best bound -, gap -

Computing Irreducible Inconsistent Subsystem (IIS)...

           Constraints          |            Bounds           |  Runtime
      Min       Max     Guess   |   Min       Max     Guess   |
--------------------------------------------------------------------------
        0       255         -         0         0         -           0s
       32        32         -         0         0         -           0s

IIS computed: 32 constraints, 0 bounds
IIS runtime: 0.38 seconds (0.56 work units)

Gurobi 9.5.2 (mac64[arm]) logging started Fri Apr 28 17:24:45 2023

Set parameter LogFile to value "Java/output/iterative_model_2_machine/scenario_seed_3_nJob_20_machineCount_2/mip_increment_2/log.txt"
Gurobi Optimizer version 9.5.2 build v9.5.2rc0 (mac64[arm])
Thread count: 8 physical cores, 8 logical processors, using up to 8 threads
Optimize a model with 598 rows, 935 columns and 6157 nonzeros
Model fingerprint: 0xd95e09e7
Variable types: 0 continuous, 935 integer (935 binary)
Coefficient statistics:
  Matrix range     [1e+00, 1e+02]
  Objective range  [4e+01, 3e+04]
  Bounds range     [1e+00, 1e+00]
  RHS range        [1e+00, 1e+00]
Presolve removed 398 rows and 373 columns
Presolve time: 0.01s
Presolved: 200 rows, 562 columns, 3304 nonzeros
Variable types: 0 continuous, 562 integer (562 binary)

Root relaxation: objective 5.515715e+04, 216 iterations, 0.00 seconds (0.00 work units)

    Nodes    |    Current Node    |     Objective Bounds      |     Work
 Expl Unexpl |  Obj  Depth IntInf | Incumbent    BestBd   Gap | It/Node Time

     0     0 55157.1538    0   33          - 55157.1538      -     -    0s
H    0     0                    75506.000000 55157.1538  26.9%     -    0s
H    0     0                    56229.000000 55157.1538  1.91%     -    0s
H    0     0                    55818.000000 55157.1538  1.18%     -    0s

Cutting planes:
  Gomory: 1
  Cover: 1
  Clique: 8
  GUB cover: 3
  Zero half: 6
  RLT: 3

Explored 1 nodes (250 simplex iterations) in 0.02 seconds (0.02 work units)
Thread count was 8 (of 8 available processors)

Solution count 3: 55818 56229 75506 

Optimal solution found (tolerance 1.00e-04)
Best objective 5.581800000000e+04, best bound 5.581800000000e+04, gap 0.0000%

Gurobi 9.5.2 (mac64[arm]) logging started Fri Apr 28 17:24:45 2023

Set parameter LogFile to value "Java/output/iterative_model_2_machine/scenario_seed_3_nJob_20_machineCount_2/mip_increment_2/log.txt"
Gurobi Optimizer version 9.5.2 build v9.5.2rc0 (mac64[arm])
Thread count: 8 physical cores, 8 logical processors, using up to 8 threads
Optimize a model with 1206 rows, 10230 columns and 113974 nonzeros
Model fingerprint: 0x39b20dca
Variable types: 0 continuous, 10230 integer (10230 binary)
Coefficient statistics:
  Matrix range     [1e+00, 1e+02]
  Objective range  [5e+00, 1e+06]
  Bounds range     [1e+00, 1e+00]
  RHS range        [1e+00, 1e+00]

Warning: Completing partial solution with 10175 unfixed non-continuous variables out of 10230
User MIP start produced solution with objective 338996 (0.01s)
Loaded user MIP start with objective 338996

Presolve removed 155 rows and 2456 columns
Presolve time: 0.12s
Presolved: 1051 rows, 7774 columns, 86553 nonzeros
Variable types: 0 continuous, 7774 integer (7772 binary)

Root relaxation: objective 2.283974e+05, 4702 iterations, 0.21 seconds (0.43 work units)

    Nodes    |    Current Node    |     Objective Bounds      |     Work
 Expl Unexpl |  Obj  Depth IntInf | Incumbent    BestBd   Gap | It/Node Time

     0     0 228397.395    0  179 338996.000 228397.395  32.6%     -    0s
H    0     0                    334069.00000 228397.395  31.6%     -    0s
H    0     0                    325843.00000 228419.110  29.9%     -    0s
     0     0 234172.659    0  236 325843.000 234172.659  28.1%     -    0s
H    0     0                    324151.00000 234172.659  27.8%     -    0s
H    0     0                    320750.00000 234172.659  27.0%     -    0s
     0     0 235554.624    0  237 320750.000 235554.624  26.6%     -    0s
     0     0 235680.400    0  234 320750.000 235680.400  26.5%     -    0s
     0     0 241295.989    0  277 320750.000 241295.989  24.8%     -    1s
H    0     0                    312950.00000 241295.989  22.9%     -    1s
     0     0 241544.697    0  264 312950.000 241544.697  22.8%     -    1s
     0     0 241629.295    0  268 312950.000 241629.295  22.8%     -    1s
     0     0 241629.295    0  271 312950.000 241629.295  22.8%     -    1s
     0     0 246581.744    0  312 312950.000 246581.744  21.2%     -    1s
H    0     0                    290181.00000 246581.744  15.0%     -    1s
     0     0 246733.019    0  322 290181.000 246733.019  15.0%     -    1s
     0     0 246739.826    0  326 290181.000 246739.826  15.0%     -    1s
     0     0 250399.193    0  333 290181.000 250399.193  13.7%     -    2s
H    0     0                    288333.00000 250399.193  13.2%     -    2s
H    0     0                    284513.00000 250399.193  12.0%     -    2s
     0     0 250736.737    0  319 284513.000 250736.737  11.9%     -    2s
     0     0 250811.066    0  332 284513.000 250811.066  11.8%     -    2s
     0     0 250826.273    0  334 284513.000 250826.273  11.8%     -    2s
     0     0 250829.936    0  337 284513.000 250829.936  11.8%     -    2s
     0     0 254686.386    0  334 284513.000 254686.386  10.5%     -    2s
     0     0 254686.386    0  181 284513.000 254686.386  10.5%     -    2s
H    0     0                    283858.00000 254686.386  10.3%     -    3s
     0     0 254686.386    0  285 283858.000 254686.386  10.3%     -    3s
H    0     0                    278653.00000 254686.386  8.60%     -    3s
     0     0 254686.386    0  315 278653.000 254686.386  8.60%     -    3s
     0     0 254686.386    0  311 278653.000 254686.386  8.60%     -    3s
     0     0 254724.491    0  319 278653.000 254724.491  8.59%     -    3s
     0     0 254728.407    0  327 278653.000 254728.407  8.59%     -    3s
     0     0 255605.067    0  342 278653.000 255605.067  8.27%     -    3s
H    0     0                    278091.00000 255605.067  8.09%     -    3s
     0     0 255862.018    0  317 278091.000 255862.018  7.99%     -    4s
     0     0 255869.364    0  321 278091.000 255869.364  7.99%     -    4s
     0     0 257221.222    0  338 278091.000 257221.222  7.50%     -    4s
     0     0 257801.353    0  332 278091.000 257801.353  7.30%     -    4s
     0     0 257999.635    0  344 278091.000 257999.635  7.22%     -    4s
     0     0 258108.334    0  325 278091.000 258108.334  7.19%     -    4s
     0     0 258111.827    0  325 278091.000 258111.827  7.18%     -    4s
     0     0 258977.570    0  358 278091.000 258977.570  6.87%     -    4s
     0     0 259411.288    0  346 278091.000 259411.288  6.72%     -    4s
     0     0 259524.183    0  360 278091.000 259524.183  6.68%     -    4s
     0     0 259600.895    0  372 278091.000 259600.895  6.65%     -    5s
     0     0 259610.252    0  371 278091.000 259610.252  6.65%     -    5s
     0     0 259767.364    0  342 278091.000 259767.364  6.59%     -    5s
     0     0 259956.556    0  338 278091.000 259956.556  6.52%     -    5s
     0     0 259964.112    0  348 278091.000 259964.112  6.52%     -    5s
     0     0 260115.924    0  356 278091.000 260115.924  6.46%     -    5s
     0     0 260172.131    0  349 278091.000 260172.131  6.44%     -    5s
     0     0 260187.561    0  353 278091.000 260187.561  6.44%     -    5s
     0     0 260428.387    0  356 278091.000 260428.387  6.35%     -    5s
     0     0 260470.367    0  360 278091.000 260470.367  6.34%     -    5s
     0     0 260476.461    0  350 278091.000 260476.461  6.33%     -    5s
     0     0 260646.407    0  356 278091.000 260646.407  6.27%     -    5s
     0     0 260646.407    0  354 278091.000 260646.407  6.27%     -    5s
     0     2 260655.906    0  352 278091.000 260655.906  6.27%     -    6s
H   31    29                    275145.00000 265108.680  3.65%  1049    7s
H   34    29                    269354.00000 265133.384  1.57%  1127    7s
H   38    29                    266997.00000 265133.384  0.70%  1095    7s
H   71     9                    266817.00000 266817.000  0.00%   624    7s

Cutting planes:
  Cover: 9
  Clique: 56
  MIR: 93
  StrongCG: 46
  GUB cover: 104
  Zero half: 7
  Mod-K: 1
  RLT: 9

Explored 79 nodes (84016 simplex iterations) in 7.66 seconds (16.22 work units)
Thread count was 8 (of 8 available processors)

Solution count 10: 266817 266997 269354 ... 290181

Optimal solution found (tolerance 1.00e-04)
Best objective 2.668170000000e+05, best bound 2.668170000000e+05, gap 0.0000%
